#p MP2/aug-cc-pV6Z geom=connectivity opt freq

Title Card Required

0 1
 H                  4.63042529    0.03199065    0.47307642
 H                  4.03042529    0.03199065    0.47307642

 1 2 1.0
 2

