%chk=CH3_0_doublet-opt.chk
#p wb97xd/6-31g* opt freq 

CH3_0_doublet

0 2
 C       -4.033289      0.000000      1.517255
 H       -4.479489      0.937558      1.210343
 H       -4.479489     -0.937558      1.210343
 H       -3.138423      0.000000      2.126942










