%chk=NTGPy+H-p-CH3_1+_doublet-opt.chk
#p wb97xd/6-31g* opt freq 

NTGPy+H-p-CH3_1+_doublet

1 2
 C       -0.040535      2.588270      0.119326
 C        1.470189      2.458717      0.082354
 C        2.133483      1.229706     -0.018849
 N        1.415817     -0.000925     -0.008540
 C        0.029625      0.001066      0.021515
 C       -0.699477      1.221752      0.030194
 C        2.131598     -1.232869      0.016297
 C        1.464969     -2.456694      0.154764
 C       -0.045952     -2.580839      0.200466
 C       -0.701740     -1.218123      0.049310
 C        3.552669      1.212132     -0.149666
 C        4.260293     -0.008368     -0.314460
 C        3.551683     -1.222273     -0.111730
 C       -2.078796     -1.186867     -0.003811
 C       -2.818455      0.003271     -0.045376
 C       -2.077377      1.191963     -0.003362
 C        2.214827      3.637055      0.130802
 C        3.600821      3.634285      0.057968
 C        4.256011      2.435288     -0.095378
 C        4.251130     -2.445311     -0.012972
 C        3.592456     -3.637061      0.176003
 C        2.206168     -3.634862      0.242955
 C       -0.467605     -3.180366      1.562334
 C       -0.502606     -3.503452     -0.953880
 C        5.726509     -0.005936     -0.642664
 C       -0.463863      3.249222      1.452013
 C       -0.491451      3.460054     -1.076021
 H       -2.604774     -2.132921      0.050943
 H       -2.597269      2.142141     -0.034321
 H        1.699361      4.585961      0.230647
 H        5.337048      2.424359     -0.149868
 H        5.332399     -2.438827     -0.059731
 H        1.687197     -4.578445      0.370628
 H       -0.140799     -2.535373      2.383456
 H       -1.555195     -3.290407      1.625969
 H       -0.026204     -4.169679      1.710581
 H       -0.059617     -4.497775     -0.861168
 H       -1.588666     -3.637254     -0.956544
 H       -0.205300     -3.086522     -1.920554
 H        6.352858      0.064196      0.257022
 H        6.019889     -0.909088     -1.180833
 H        5.984404      0.835212     -1.290404
 H       -0.152889      2.634618      2.302005
 H       -0.010532      4.237822      1.563301
 H       -1.550331      3.377546      1.501286
 H       -1.575557      3.610266     -1.080872
 H       -0.032017      4.450449     -1.034291
 H       -0.205992      2.993038     -2.023159
 H        4.155961      4.564399      0.115592
 H        4.145999     -4.565571      0.266618
 C       -4.259438      0.002016     -0.103420
 C       -5.034426      1.133376      0.270214
 C       -4.993958     -1.133687     -0.540647
 C       -6.398675      1.106512      0.208689
 C       -6.359080     -1.117103     -0.586945
 N       -7.043043     -0.007856     -0.215132
 H       -4.562277      2.031207      0.647222
 H       -4.485570     -2.026958     -0.879848
 H       -7.021147      1.944495      0.496008
 H       -6.950150     -1.958969     -0.925063
 H       -8.054242     -0.011692     -0.255063



